solution status: optimal solution found
objective value:                                 8800
y$1                                                 1 	(obj:0)
y$2                                                 1 	(obj:0)
y$3                                                 1 	(obj:0)
y$4                                                 1 	(obj:0)
y$5                                                 1 	(obj:0)
y$6                                                 1 	(obj:0)
y$7                                                 1 	(obj:0)
y$8                                                 1 	(obj:0)
y$9                                                 1 	(obj:0)
y$10                                                1 	(obj:0)
x$1$9                                               1 	(obj:0)
x$2$1                                               1 	(obj:0)
x$3$1                                               1 	(obj:0)
x$4$7                                               1 	(obj:0)
x$5$2                                               1 	(obj:0)
x$6$3                                               1 	(obj:0)
x$7$5                                               1 	(obj:0)
x$8$9                                               1 	(obj:0)
x$9$9                                               1 	(obj:0)
x$10$5                                              1 	(obj:0)
x$11$5                                              1 	(obj:0)
x$12$8                                              1 	(obj:0)
x$13$6                                              1 	(obj:0)
x$14$1                                              1 	(obj:0)
x$15$8                                              1 	(obj:0)
x$16$10                                             1 	(obj:0)
x$17$10                                             1 	(obj:0)
x$18$9                                              1 	(obj:0)
x$19$9                                              1 	(obj:0)
x$20$8                                              1 	(obj:0)
x$21$2                                              1 	(obj:0)
x$22$4                                              1 	(obj:0)
x$23$3                                              1 	(obj:0)
x$24$5                                              1 	(obj:0)
x$25$3                                              1 	(obj:0)
x$26$5                                              1 	(obj:0)
x$27$7                                              1 	(obj:0)
x$28$1                                              1 	(obj:0)
x$29$4                                              1 	(obj:0)
x$30$10                                             1 	(obj:0)
x$31$9                                              1 	(obj:0)
x$32$2                                              1 	(obj:0)
x$33$6                                              1 	(obj:0)
x$34$6                                              1 	(obj:0)
x$35$8                                              1 	(obj:0)
x$36$1                                              1 	(obj:0)
x$37$8                                              1 	(obj:0)
x$38$7                                              1 	(obj:0)
x$39$7                                              1 	(obj:0)
x$40$2                                              1 	(obj:0)
x$41$7                                              1 	(obj:0)
x$42$10                                             1 	(obj:0)
x$43$3                                              1 	(obj:0)
x$44$4                                              1 	(obj:0)
x$45$2                                              1 	(obj:0)
x$46$10                                             1 	(obj:0)
x$47$4                                              1 	(obj:0)
x$48$3                                              1 	(obj:0)
x$49$8                                              1 	(obj:0)
x$50$1                                              1 	(obj:0)
x$51$4                                              1 	(obj:0)
x$52$10                                             1 	(obj:0)
x$53$6                                              1 	(obj:0)
x$54$6                                              1 	(obj:0)
x$55$7                                              1 	(obj:0)
x$56$6                                              1 	(obj:0)
H                                                8800 	(obj:1)
